! HF sto-3g LARGEPRINT
*xyz 1 2
O      0.063738   -0.275703    0.000016
H     -0.031835    0.137894    0.569004
H     -0.031903    0.137808   -0.569021
*
